\ Model IP_mmnl
\ LP format - for model browsing. Use MPS format to capture full model detail.
Maximize
  0.918869589674379 z[0] + 0.081130410325621 z[1]
Subject To
 xa_0_0: x[0,0] - 20 y[0] <= 0
 xb_0_0: z[0] + x[0,0] - 20 y[0] >= -18
 xc_0_0: z[0] + x[0,0] + 20 y[0] <= 22
 xa_1_0: x[1,0] - 20 y[1] <= 0
 xb_1_0: z[0] + x[1,0] - 20 y[1] >= -18
 xc_1_0: z[0] + x[1,0] + 20 y[1] <= 22
 xa_2_0: x[2,0] - 20 y[2] <= 0
 xb_2_0: z[0] + x[2,0] - 20 y[2] >= -19
 xc_2_0: z[0] + x[2,0] + 20 y[2] <= 21
 z_0: z[0] - 0.0938 x[0,0] - 0.0503 x[1,0] - 1.005 x[2,0] = 0
 xa_0_1: x[0,1] - 20 y[0] <= 0
 xb_0_1: z[1] + x[0,1] - 20 y[0] >= -18
 xc_0_1: z[1] + x[0,1] + 20 y[0] <= 22
 xa_1_1: x[1,1] - 20 y[1] <= 0
 xb_1_1: z[1] + x[1,1] - 20 y[1] >= -18
 xc_1_1: z[1] + x[1,1] + 20 y[1] <= 22
 xa_2_1: x[2,1] - 20 y[2] <= 0
 xb_2_1: z[1] + x[2,1] - 20 y[2] >= -19
 xc_2_1: z[1] + x[2,1] + 20 y[2] <= 21
 z_1: z[1] - 1.0841 x[0,1] - 1.0829 x[1,1] - 0.0832 x[2,1] = 0
>>>>>>> a5ddc1ac384f7ca785f36d5edc97dd27657a5501
Bounds
 -infinity <= z[0] <= 371.5
 -infinity <= x[0,0] <= 371.5
 -infinity <= x[1,0] <= 371.5
 -infinity <= x[2,0] <= 371.5
Binaries
 y[0] y[1] y[2]
End
